c preprocessed version of DoubleStarSnark, 30 vertices, 45 edges
p td 30 45
0 1
0 14
0 15
1 11
1 2
10 11
11 12
12 13
12 27
13 14
15 16
15 29
16 20
16 23
17 18
17 25
17 28
18 19
19 23
19 26
2 3
2 7
20 21
20 28
21 22
22 26
22 29
23 24
24 25
25 29
26 27
27 28
3 18
3 4
4 14
4 5
5 10
5 6
6 21
6 7
7 8
8 13
8 9
9 10
9 24
